#######################################################
#CASTEP cell file: Pd_O_O_NO_CO_0000.cell
#Created using the Atomic Simulation Environment (ASE)#
#######################################################

%BLOCK LATTICE_CART
    5.5680571941 0.0000000000 0.0000000000
    0.0000000000 5.5680571941 0.0000000000
    0.0000000000 0.0000000000 29.9058165000
%ENDBLOCK LATTICE_CART


%BLOCK POSITIONS_ABS
    Pd 1.392014 1.392014 12.000000
    Pd 4.176043 1.392014 12.000000
    Pd 1.392014 4.176043 12.000000
    Pd 4.176043 4.176043 12.000000
    Pd 0.000000 0.000000 13.968606
    Pd 2.784029 0.000000 13.968606
    Pd 0.000000 2.784029 13.968606
    Pd 2.784029 2.784029 13.968606
    Pd 1.392014 1.392014 15.937211
    Pd 4.176043 1.392014 15.937211
    Pd 1.392014 4.176043 15.937211
    Pd 4.176043 4.176043 15.937211
    Pd 0.000000 0.000000 17.905817
    Pd 2.784029 0.000000 17.905817
    Pd 0.000000 2.784029 17.905817
    Pd 2.784029 2.784029 17.905817
    O 4.167193 1.383142 18.767992
    O 4.167193 4.167171 18.767992
    N 1.421956 0.000000 19.228925
    O 1.421956 0.000000 20.433276
    C 1.388128 2.784034 19.325582
    O 1.388128 2.784023 20.503174
%ENDBLOCK POSITIONS_ABS

%BLOCK IONIC_CONSTRAINTS 
     1  Pd   1   1 0 0 
     2  Pd   1   0 1 0 
     3  Pd   1   0 0 1 
     4  Pd   2   1 0 0 
     5  Pd   2   0 1 0 
     6  Pd   2   0 0 1 
     7  Pd   3   1 0 0 
     8  Pd   3   0 1 0 
     9  Pd   3   0 0 1 
    10  Pd   4   1 0 0 
    11  Pd   4   0 1 0 
    12  Pd   4   0 0 1 
    13  Pd   5   1 0 0 
    14  Pd   5   0 1 0 
    15  Pd   5   0 0 1 
    16  Pd   6   1 0 0 
    17  Pd   6   0 1 0 
    18  Pd   6   0 0 1 
    19  Pd   7   1 0 0 
    20  Pd   7   0 1 0 
    21  Pd   7   0 0 1 
    22  Pd   8   1 0 0 
    23  Pd   8   0 1 0 
    24  Pd   8   0 0 1 
%ENDBLOCK IONIC_CONSTRAINTS 
%BLOCK SPECIES_POT

C C_OTF7.usp
N N_OTF7.usp
O O_OTF7.usp
Pd Pd_OTF7.usp
%ENDBLOCK SPECIES_POT
FIX_COM : False
FIX_ALL_CELL : True
KPOINTS_MP_GRID : 5 5 1
